% Logging successfully configured
%%%mzn-stat: initTime=0.004075995
%%%mzn-stat: objective=580
%%%mzn-stat: nodes=199
%%%mzn-stat: restarts=0
%%%mzn-stat: peakDepth=185
%%%mzn-stat: solveTime=0.001667041
%%%mzn-stat: variables=380
%%%mzn-stat: propagators=259
%%%mzn-stat: failures=8
%%%mzn-stat: propagations=1059
%%%mzn-stat: nogoods=8
%%%mzn-stat: numAtomicConstraintsPropagated=0
%%%mzn-stat: allDifferentNumber1PropagationsTotal=64
%%%mzn-stat: allDifferentNumber1PropagationsThatFoundConflict=0
%%%mzn-stat: allDifferentNumber1PropagationsThatPruned=35
%%%mzn-stat: allDifferentNumber1TotalValuesPruned=155
%%%mzn-stat: allDifferentNumber1TotalHallSetSizeConflict=0
%%%mzn-stat: allDifferentNumber1NumberOfConflicts=0
%%%mzn-stat: allDifferentNumber1MaxHallSetSizeConflict=0
%%%mzn-stat: allDifferentNumber1TotalPruningHallSetSize=199
%%%mzn-stat: allDifferentNumber1NumberOfPruningExplanations=155
%%%mzn-stat: allDifferentNumber1MaxPruningHallSetSize=10
%%%mzn-stat: allDifferentNumber1TotalFixedEdgesAtConflict=0
%%%mzn-stat: allDifferentNumber1TotalVarsInvolvedInPruning=149
%%%mzn-stat: allDifferentNumber1MaxValuesPrunedFromSingleVar=3
%%%mzn-stat: allDifferentNumber1TotalSccSizeAtPruning=76
%%%mzn-stat: allDifferentNumber1NumberOfSccPruningCalls=35
%%%mzn-stat: circuitNumber2PropagationsThatFoundConflict=8
%%%mzn-stat: circuitNumber2TotalFixedEdgesAtConflict=108
%%%mzn-stat: circuitNumber2NumberOfConflicts=8
%%%mzn-stat: circuitNumber2PropagationsThatPruned=1
%%%mzn-stat: circuitNumber2PropagationsTotal=35
%%%mzn-stat: AverageConflictSize=10.5
%%%mzn-stat: NumUnitNogoodsLearned=0
%%%mzn-stat: AverageLearnedNogoodLength=7.875
%%%mzn-stat: AverageBacktrackAmount=0
%%%mzn-stat: AverageLbd=7.75
%%%mzn-stat: 2AutonomousSearchNumBackupCalled=171
%%%mzn-stat: 2AutonomousSearchNumPredicatesRemoved=0
%%%mzn-stat: 2AutonomousSearchNumCalls=172
%%%mzn-stat: 2AutonomousSearchNumPredicatesAdded=54
%%%mzn-stat: 2AutonomousSearchAverageSizeOfHeap=0.313953488372093
%%%mzn-stat: 2AutonomousSearchNumAssignedPredicatesEncountered=54
%%%mzn-stat-end
maxleg = 580;
succ = array1d(1..20,[7, 3, 4, 5, 6, 11, 2, 9, 10, 14, 12, 13, 16, 18, 1, 8, 15, 20, 17, 19]);
% time elapsed: 5.94 s
----------
%%%mzn-stat: initTime=0.004075995
%%%mzn-stat: objective=564
%%%mzn-stat: nodes=374
%%%mzn-stat: restarts=0
%%%mzn-stat: peakDepth=185
%%%mzn-stat: solveTime=0.002521833
%%%mzn-stat: variables=380
%%%mzn-stat: propagators=259
%%%mzn-stat: failures=10
%%%mzn-stat: propagations=1568
%%%mzn-stat: nogoods=10
%%%mzn-stat: numAtomicConstraintsPropagated=0
%%%mzn-stat: allDifferentNumber1PropagationsTotal=106
%%%mzn-stat: allDifferentNumber1PropagationsThatFoundConflict=0
%%%mzn-stat: allDifferentNumber1PropagationsThatPruned=56
%%%mzn-stat: allDifferentNumber1TotalValuesPruned=263
%%%mzn-stat: allDifferentNumber1TotalHallSetSizeConflict=0
%%%mzn-stat: allDifferentNumber1NumberOfConflicts=0
%%%mzn-stat: allDifferentNumber1MaxHallSetSizeConflict=0
%%%mzn-stat: allDifferentNumber1TotalPruningHallSetSize=348
%%%mzn-stat: allDifferentNumber1NumberOfPruningExplanations=263
%%%mzn-stat: allDifferentNumber1MaxPruningHallSetSize=10
%%%mzn-stat: allDifferentNumber1TotalFixedEdgesAtConflict=0
%%%mzn-stat: allDifferentNumber1TotalVarsInvolvedInPruning=247
%%%mzn-stat: allDifferentNumber1MaxValuesPrunedFromSingleVar=4
%%%mzn-stat: allDifferentNumber1TotalSccSizeAtPruning=111
%%%mzn-stat: allDifferentNumber1NumberOfSccPruningCalls=56
%%%mzn-stat: circuitNumber2PropagationsThatFoundConflict=9
%%%mzn-stat: circuitNumber2TotalFixedEdgesAtConflict=122
%%%mzn-stat: circuitNumber2NumberOfConflicts=9
%%%mzn-stat: circuitNumber2PropagationsThatPruned=2
%%%mzn-stat: circuitNumber2PropagationsTotal=55
%%%mzn-stat: AverageConflictSize=8.9
%%%mzn-stat: NumUnitNogoodsLearned=0
%%%mzn-stat: AverageLearnedNogoodLength=7.2
%%%mzn-stat: AverageBacktrackAmount=0
%%%mzn-stat: AverageLbd=6.7
%%%mzn-stat: 2AutonomousSearchNumBackupCalled=325
%%%mzn-stat: 2AutonomousSearchNumPredicatesRemoved=0
%%%mzn-stat: 2AutonomousSearchNumCalls=327
%%%mzn-stat: 2AutonomousSearchNumPredicatesAdded=75
%%%mzn-stat: 2AutonomousSearchAverageSizeOfHeap=0.3577981651376147
%%%mzn-stat: 2AutonomousSearchNumAssignedPredicatesEncountered=117
%%%mzn-stat-end
maxleg = 564;
succ = array1d(1..20,[8, 3, 4, 5, 6, 12, 2, 7, 1, 9, 20, 13, 16, 10, 17, 11, 18, 14, 15, 19]);
% time elapsed: 5.94 s
----------
%%%mzn-stat: initTime=0.004075995
%%%mzn-stat: objective=463
%%%mzn-stat: nodes=525
%%%mzn-stat: restarts=0
%%%mzn-stat: peakDepth=185
%%%mzn-stat: solveTime=0.003102786
%%%mzn-stat: variables=380
%%%mzn-stat: propagators=259
%%%mzn-stat: failures=10
%%%mzn-stat: propagations=2007
%%%mzn-stat: nogoods=10
%%%mzn-stat: numAtomicConstraintsPropagated=0
%%%mzn-stat: allDifferentNumber1PropagationsTotal=135
%%%mzn-stat: allDifferentNumber1PropagationsThatFoundConflict=0
%%%mzn-stat: allDifferentNumber1PropagationsThatPruned=71
%%%mzn-stat: allDifferentNumber1TotalValuesPruned=337
%%%mzn-stat: allDifferentNumber1TotalHallSetSizeConflict=0
%%%mzn-stat: allDifferentNumber1NumberOfConflicts=0
%%%mzn-stat: allDifferentNumber1MaxHallSetSizeConflict=0
%%%mzn-stat: allDifferentNumber1TotalPruningHallSetSize=453
%%%mzn-stat: allDifferentNumber1NumberOfPruningExplanations=337
%%%mzn-stat: allDifferentNumber1MaxPruningHallSetSize=10
%%%mzn-stat: allDifferentNumber1TotalFixedEdgesAtConflict=0
%%%mzn-stat: allDifferentNumber1TotalVarsInvolvedInPruning=318
%%%mzn-stat: allDifferentNumber1MaxValuesPrunedFromSingleVar=4
%%%mzn-stat: allDifferentNumber1TotalSccSizeAtPruning=138
%%%mzn-stat: allDifferentNumber1NumberOfSccPruningCalls=71
%%%mzn-stat: circuitNumber2PropagationsThatFoundConflict=9
%%%mzn-stat: circuitNumber2TotalFixedEdgesAtConflict=122
%%%mzn-stat: circuitNumber2NumberOfConflicts=9
%%%mzn-stat: circuitNumber2PropagationsThatPruned=4
%%%mzn-stat: circuitNumber2PropagationsTotal=70
%%%mzn-stat: AverageConflictSize=8.9
%%%mzn-stat: NumUnitNogoodsLearned=0
%%%mzn-stat: AverageLearnedNogoodLength=7.2
%%%mzn-stat: AverageBacktrackAmount=0
%%%mzn-stat: AverageLbd=6.7
%%%mzn-stat: 2AutonomousSearchNumBackupCalled=462
%%%mzn-stat: 2AutonomousSearchNumPredicatesRemoved=0
%%%mzn-stat: 2AutonomousSearchNumCalls=465
%%%mzn-stat: 2AutonomousSearchNumPredicatesAdded=75
%%%mzn-stat: 2AutonomousSearchAverageSizeOfHeap=0.3870967741935484
%%%mzn-stat: 2AutonomousSearchNumAssignedPredicatesEncountered=180
%%%mzn-stat-end
maxleg = 463;
succ = array1d(1..20,[8, 3, 4, 5, 6, 12, 2, 7, 1, 9, 20, 16, 11, 10, 17, 13, 18, 14, 15, 19]);
% time elapsed: 5.94 s
----------
%%%mzn-stat: initTime=0.004075995
%%%mzn-stat: objective=433
%%%mzn-stat: nodes=676
%%%mzn-stat: restarts=0
%%%mzn-stat: peakDepth=185
%%%mzn-stat: solveTime=0.003694811
%%%mzn-stat: variables=380
%%%mzn-stat: propagators=259
%%%mzn-stat: failures=10
%%%mzn-stat: propagations=2468
%%%mzn-stat: nogoods=10
%%%mzn-stat: numAtomicConstraintsPropagated=0
%%%mzn-stat: allDifferentNumber1PropagationsTotal=163
%%%mzn-stat: allDifferentNumber1PropagationsThatFoundConflict=0
%%%mzn-stat: allDifferentNumber1PropagationsThatPruned=85
%%%mzn-stat: allDifferentNumber1TotalValuesPruned=402
%%%mzn-stat: allDifferentNumber1TotalHallSetSizeConflict=0
%%%mzn-stat: allDifferentNumber1NumberOfConflicts=0
%%%mzn-stat: allDifferentNumber1MaxHallSetSizeConflict=0
%%%mzn-stat: allDifferentNumber1TotalPruningHallSetSize=547
%%%mzn-stat: allDifferentNumber1NumberOfPruningExplanations=402
%%%mzn-stat: allDifferentNumber1MaxPruningHallSetSize=10
%%%mzn-stat: allDifferentNumber1TotalFixedEdgesAtConflict=0
%%%mzn-stat: allDifferentNumber1TotalVarsInvolvedInPruning=381
%%%mzn-stat: allDifferentNumber1MaxValuesPrunedFromSingleVar=4
%%%mzn-stat: allDifferentNumber1TotalSccSizeAtPruning=165
%%%mzn-stat: allDifferentNumber1NumberOfSccPruningCalls=85
%%%mzn-stat: circuitNumber2PropagationsThatFoundConflict=9
%%%mzn-stat: circuitNumber2TotalFixedEdgesAtConflict=122
%%%mzn-stat: circuitNumber2NumberOfConflicts=9
%%%mzn-stat: circuitNumber2PropagationsThatPruned=6
%%%mzn-stat: circuitNumber2PropagationsTotal=85
%%%mzn-stat: AverageConflictSize=8.9
%%%mzn-stat: NumUnitNogoodsLearned=0
%%%mzn-stat: AverageLearnedNogoodLength=7.2
%%%mzn-stat: AverageBacktrackAmount=0
%%%mzn-stat: AverageLbd=6.7
%%%mzn-stat: 2AutonomousSearchNumBackupCalled=600
%%%mzn-stat: 2AutonomousSearchNumPredicatesRemoved=0
%%%mzn-stat: 2AutonomousSearchNumCalls=604
%%%mzn-stat: 2AutonomousSearchNumPredicatesAdded=75
%%%mzn-stat: 2AutonomousSearchAverageSizeOfHeap=0.402317880794702
%%%mzn-stat: 2AutonomousSearchNumAssignedPredicatesEncountered=243
%%%mzn-stat-end
maxleg = 433;
succ = array1d(1..20,[8, 3, 5, 6, 4, 12, 2, 7, 1, 9, 20, 16, 11, 10, 17, 13, 18, 14, 15, 19]);
% time elapsed: 5.94 s
----------
%%%mzn-stat: initTime=0.004075995
%%%mzn-stat: objective=432
%%%mzn-stat: nodes=809
%%%mzn-stat: restarts=0
%%%mzn-stat: peakDepth=185
%%%mzn-stat: solveTime=0.00428769
%%%mzn-stat: variables=380
%%%mzn-stat: propagators=259
%%%mzn-stat: failures=11
%%%mzn-stat: propagations=2937
%%%mzn-stat: nogoods=11
%%%mzn-stat: numAtomicConstraintsPropagated=0
%%%mzn-stat: allDifferentNumber1PropagationsTotal=190
%%%mzn-stat: allDifferentNumber1PropagationsThatFoundConflict=0
%%%mzn-stat: allDifferentNumber1PropagationsThatPruned=99
%%%mzn-stat: allDifferentNumber1TotalValuesPruned=466
%%%mzn-stat: allDifferentNumber1TotalHallSetSizeConflict=0
%%%mzn-stat: allDifferentNumber1NumberOfConflicts=0
%%%mzn-stat: allDifferentNumber1MaxHallSetSizeConflict=0
%%%mzn-stat: allDifferentNumber1TotalPruningHallSetSize=642
%%%mzn-stat: allDifferentNumber1NumberOfPruningExplanations=466
%%%mzn-stat: allDifferentNumber1MaxPruningHallSetSize=10
%%%mzn-stat: allDifferentNumber1TotalFixedEdgesAtConflict=0
%%%mzn-stat: allDifferentNumber1TotalVarsInvolvedInPruning=441
%%%mzn-stat: allDifferentNumber1MaxValuesPrunedFromSingleVar=4
%%%mzn-stat: allDifferentNumber1TotalSccSizeAtPruning=195
%%%mzn-stat: allDifferentNumber1NumberOfSccPruningCalls=99
%%%mzn-stat: circuitNumber2PropagationsThatFoundConflict=9
%%%mzn-stat: circuitNumber2TotalFixedEdgesAtConflict=122
%%%mzn-stat: circuitNumber2NumberOfConflicts=9
%%%mzn-stat: circuitNumber2PropagationsThatPruned=9
%%%mzn-stat: circuitNumber2PropagationsTotal=99
%%%mzn-stat: AverageConflictSize=8.545454545454545
%%%mzn-stat: NumUnitNogoodsLearned=0
%%%mzn-stat: AverageLearnedNogoodLength=6.909090909090909
%%%mzn-stat: AverageBacktrackAmount=0
%%%mzn-stat: AverageLbd=6.2727272727272725
%%%mzn-stat: 2AutonomousSearchNumBackupCalled=721
%%%mzn-stat: 2AutonomousSearchNumPredicatesRemoved=0
%%%mzn-stat: 2AutonomousSearchNumCalls=726
%%%mzn-stat: 2AutonomousSearchNumPredicatesAdded=82
%%%mzn-stat: 2AutonomousSearchAverageSizeOfHeap=0.4228650137741047
%%%mzn-stat: 2AutonomousSearchNumAssignedPredicatesEncountered=307
%%%mzn-stat-end
maxleg = 432;
succ = array1d(1..20,[8, 3, 5, 6, 4, 13, 2, 7, 1, 9, 20, 11, 16, 10, 17, 12, 18, 14, 15, 19]);
% time elapsed: 5.94 s
----------
%%%mzn-stat: initTime=0.004075995
%%%mzn-stat: objective=400
%%%mzn-stat: nodes=936
%%%mzn-stat: restarts=0
%%%mzn-stat: peakDepth=185
%%%mzn-stat: solveTime=0.00480777
%%%mzn-stat: variables=380
%%%mzn-stat: propagators=259
%%%mzn-stat: failures=11
%%%mzn-stat: propagations=3407
%%%mzn-stat: nogoods=11
%%%mzn-stat: numAtomicConstraintsPropagated=0
%%%mzn-stat: allDifferentNumber1PropagationsTotal=214
%%%mzn-stat: allDifferentNumber1PropagationsThatFoundConflict=0
%%%mzn-stat: allDifferentNumber1PropagationsThatPruned=111
%%%mzn-stat: allDifferentNumber1TotalValuesPruned=531
%%%mzn-stat: allDifferentNumber1TotalHallSetSizeConflict=0
%%%mzn-stat: allDifferentNumber1NumberOfConflicts=0
%%%mzn-stat: allDifferentNumber1MaxHallSetSizeConflict=0
%%%mzn-stat: allDifferentNumber1TotalPruningHallSetSize=740
%%%mzn-stat: allDifferentNumber1NumberOfPruningExplanations=531
%%%mzn-stat: allDifferentNumber1MaxPruningHallSetSize=10
%%%mzn-stat: allDifferentNumber1TotalFixedEdgesAtConflict=0
%%%mzn-stat: allDifferentNumber1TotalVarsInvolvedInPruning=501
%%%mzn-stat: allDifferentNumber1MaxValuesPrunedFromSingleVar=4
%%%mzn-stat: allDifferentNumber1TotalSccSizeAtPruning=220
%%%mzn-stat: allDifferentNumber1NumberOfSccPruningCalls=111
%%%mzn-stat: circuitNumber2PropagationsThatFoundConflict=9
%%%mzn-stat: circuitNumber2TotalFixedEdgesAtConflict=122
%%%mzn-stat: circuitNumber2NumberOfConflicts=9
%%%mzn-stat: circuitNumber2PropagationsThatPruned=10
%%%mzn-stat: circuitNumber2PropagationsTotal=111
%%%mzn-stat: AverageConflictSize=8.545454545454545
%%%mzn-stat: NumUnitNogoodsLearned=0
%%%mzn-stat: AverageLearnedNogoodLength=6.909090909090909
%%%mzn-stat: AverageBacktrackAmount=0
%%%mzn-stat: AverageLbd=6.2727272727272725
%%%mzn-stat: 2AutonomousSearchNumBackupCalled=836
%%%mzn-stat: 2AutonomousSearchNumPredicatesRemoved=0
%%%mzn-stat: 2AutonomousSearchNumCalls=842
%%%mzn-stat: 2AutonomousSearchNumPredicatesAdded=82
%%%mzn-stat: 2AutonomousSearchAverageSizeOfHeap=0.44061757719714967
%%%mzn-stat: 2AutonomousSearchNumAssignedPredicatesEncountered=371
%%%mzn-stat-end
maxleg = 400;
succ = array1d(1..20,[8, 3, 5, 6, 4, 13, 2, 7, 10, 14, 9, 11, 16, 20, 1, 12, 15, 17, 18, 19]);
% time elapsed: 5.94 s
----------
%%%mzn-stat: initTime=0.004075995
%%%mzn-stat: objective=392
%%%mzn-stat: nodes=1065
%%%mzn-stat: restarts=0
%%%mzn-stat: peakDepth=185
%%%mzn-stat: solveTime=0.005384017
%%%mzn-stat: variables=380
%%%mzn-stat: propagators=259
%%%mzn-stat: failures=11
%%%mzn-stat: propagations=3876
%%%mzn-stat: nogoods=11
%%%mzn-stat: numAtomicConstraintsPropagated=0
%%%mzn-stat: allDifferentNumber1PropagationsTotal=240
%%%mzn-stat: allDifferentNumber1PropagationsThatFoundConflict=0
%%%mzn-stat: allDifferentNumber1PropagationsThatPruned=124
%%%mzn-stat: allDifferentNumber1TotalValuesPruned=591
%%%mzn-stat: allDifferentNumber1TotalHallSetSizeConflict=0
%%%mzn-stat: allDifferentNumber1NumberOfConflicts=0
%%%mzn-stat: allDifferentNumber1MaxHallSetSizeConflict=0
%%%mzn-stat: allDifferentNumber1TotalPruningHallSetSize=910
%%%mzn-stat: allDifferentNumber1NumberOfPruningExplanations=591
%%%mzn-stat: allDifferentNumber1MaxPruningHallSetSize=18
%%%mzn-stat: allDifferentNumber1TotalFixedEdgesAtConflict=0
%%%mzn-stat: allDifferentNumber1TotalVarsInvolvedInPruning=556
%%%mzn-stat: allDifferentNumber1MaxValuesPrunedFromSingleVar=5
%%%mzn-stat: allDifferentNumber1TotalSccSizeAtPruning=279
%%%mzn-stat: allDifferentNumber1NumberOfSccPruningCalls=124
%%%mzn-stat: circuitNumber2PropagationsThatFoundConflict=9
%%%mzn-stat: circuitNumber2TotalFixedEdgesAtConflict=122
%%%mzn-stat: circuitNumber2NumberOfConflicts=9
%%%mzn-stat: circuitNumber2PropagationsThatPruned=12
%%%mzn-stat: circuitNumber2PropagationsTotal=125
%%%mzn-stat: AverageConflictSize=8.545454545454545
%%%mzn-stat: NumUnitNogoodsLearned=0
%%%mzn-stat: AverageLearnedNogoodLength=6.909090909090909
%%%mzn-stat: AverageBacktrackAmount=0
%%%mzn-stat: AverageLbd=6.2727272727272725
%%%mzn-stat: 2AutonomousSearchNumBackupCalled=953
%%%mzn-stat: 2AutonomousSearchNumPredicatesRemoved=0
%%%mzn-stat: 2AutonomousSearchNumCalls=960
%%%mzn-stat: 2AutonomousSearchNumPredicatesAdded=82
%%%mzn-stat: 2AutonomousSearchAverageSizeOfHeap=0.453125
%%%mzn-stat: 2AutonomousSearchNumAssignedPredicatesEncountered=435
%%%mzn-stat-end
maxleg = 392;
succ = array1d(1..20,[15, 3, 5, 6, 4, 13, 2, 7, 10, 14, 9, 11, 16, 20, 8, 12, 1, 17, 18, 19]);
% time elapsed: 5.94 s
----------
==========
% time elapsed: 5.94 s
%%%mzn-stat: initTime=0.004075995
%%%mzn-stat: objective=392
%%%mzn-stat: nodes=1066
%%%mzn-stat: restarts=0
%%%mzn-stat: peakDepth=185
%%%mzn-stat: solveTime=0.005732932
%%%mzn-stat: variables=380
%%%mzn-stat: propagators=259
%%%mzn-stat: failures=13
%%%mzn-stat: propagations=4019
%%%mzn-stat: nogoods=13
%%%mzn-stat: numAtomicConstraintsPropagated=0
%%%mzn-stat: allDifferentNumber1PropagationsTotal=244
%%%mzn-stat: allDifferentNumber1PropagationsThatFoundConflict=0
%%%mzn-stat: allDifferentNumber1PropagationsThatPruned=127
%%%mzn-stat: allDifferentNumber1TotalValuesPruned=614
%%%mzn-stat: allDifferentNumber1TotalHallSetSizeConflict=0
%%%mzn-stat: allDifferentNumber1NumberOfConflicts=0
%%%mzn-stat: allDifferentNumber1MaxHallSetSizeConflict=0
%%%mzn-stat: allDifferentNumber1TotalPruningHallSetSize=1104
%%%mzn-stat: allDifferentNumber1NumberOfPruningExplanations=614
%%%mzn-stat: allDifferentNumber1MaxPruningHallSetSize=18
%%%mzn-stat: allDifferentNumber1TotalFixedEdgesAtConflict=0
%%%mzn-stat: allDifferentNumber1TotalVarsInvolvedInPruning=570
%%%mzn-stat: allDifferentNumber1MaxValuesPrunedFromSingleVar=6
%%%mzn-stat: allDifferentNumber1TotalSccSizeAtPruning=351
%%%mzn-stat: allDifferentNumber1NumberOfSccPruningCalls=127
%%%mzn-stat: circuitNumber2PropagationsThatFoundConflict=11
%%%mzn-stat: circuitNumber2TotalFixedEdgesAtConflict=128
%%%mzn-stat: circuitNumber2NumberOfConflicts=11
%%%mzn-stat: circuitNumber2PropagationsThatPruned=13
%%%mzn-stat: circuitNumber2PropagationsTotal=128
%%%mzn-stat: AverageConflictSize=7.6923076923076925
%%%mzn-stat: NumUnitNogoodsLearned=1
%%%mzn-stat: AverageLearnedNogoodLength=7.615384615384615
%%%mzn-stat: AverageBacktrackAmount=0
%%%mzn-stat: AverageLbd=5.538461538461538
%%%mzn-stat: 2AutonomousSearchNumBackupCalled=953
%%%mzn-stat: 2AutonomousSearchNumPredicatesRemoved=0
%%%mzn-stat: 2AutonomousSearchNumCalls=960
%%%mzn-stat: 2AutonomousSearchNumPredicatesAdded=283
%%%mzn-stat: 2AutonomousSearchAverageSizeOfHeap=0.453125
%%%mzn-stat: 2AutonomousSearchNumAssignedPredicatesEncountered=435
%%%mzn-stat-end
